data;

param n:=25;
param p:=3;
param r:=[1] 0 [2] 1 [3] 0 [4] 6 [5] 10 [6] 10 [7] 6 [8] 19 [9] 21 [10] 15 [11] 14 [12] 8 [13] 19 [14] 18 [15] 19 [16] 41 [17] 36 [18] 50 [19] 32 [20] 20 [21] 42 [22] 19 [23] 35 [24] 42 [25] 3 ;
param w:=[1] 68 [2] 88 [3] 32 [4] 29 [5] 11 [6] 10 [7] 78 [8] 36 [9] 65 [10] 76 [11] 100 [12] 4 [13] 100 [14] 60 [15] 89 [16] 91 [17] 72 [18] 55 [19] 80 [20] 77 [21] 93 [22] 70 [23] 6 [24] 83 [25] 11 ;

end;
